p cnf 963 2472
51 -696 -697 0
-51 696 0
-51 697 0
52 -51 -698 0
-52 51 0
-52 698 0
53 -699 -4 0
-53 699 0
-53 4 0
54 -53 -6 0
-54 53 0
-54 6 0
55 -700 -701 0
-55 700 0
-55 701 0
56 -702 -703 0
-56 702 0
-56 703 0
57 -56 -9 0
-57 56 0
-57 9 0
58 -704 -55 0
-58 704 0
-58 55 0
59 -11 -705 0
-59 11 0
-59 705 0
60 -59 -706 0
-60 59 0
-60 706 0
61 -707 -58 0
-61 707 0
-61 58 0
62 -14 -13 0
-62 14 0
-62 13 0
63 -62 -15 0
-63 62 0
-63 15 0
64 -708 -61 0
-64 708 0
-64 61 0
65 -16 -709 0
-65 16 0
-65 709 0
66 -65 -710 0
-66 65 0
-66 710 0
67 -711 -64 0
-67 711 0
-67 64 0
68 -18 -705 0
-68 18 0
-68 705 0
69 -68 -706 0
-69 68 0
-69 706 0
70 -712 -67 0
-70 712 0
-70 67 0
71 -20 -19 0
-71 20 0
-71 19 0
72 -71 -17 0
-72 71 0
-72 17 0
73 -713 -70 0
-73 713 0
-73 70 0
74 -714 -11 0
-74 714 0
-74 11 0
75 -74 -20 0
-75 74 0
-75 20 0
76 -715 -73 0
-76 715 0
-76 73 0
77 -716 -717 0
-77 716 0
-77 717 0
78 -77 -718 0
-78 77 0
-78 718 0
79 -719 -76 0
-79 719 0
-79 76 0
80 -24 -4 0
-80 24 0
-80 4 0
81 -80 -25 0
-81 80 0
-81 25 0
82 -720 -79 0
-82 720 0
-82 79 0
83 -717 -10 0
-83 717 0
-83 10 0
84 -83 -26 0
-84 83 0
-84 26 0
85 -721 -82 0
-85 721 0
-85 82 0
86 -23 -16 0
-86 23 0
-86 16 0
87 -86 -5 0
-87 86 0
-87 5 0
88 -722 -85 0
-88 722 0
-88 85 0
89 -27 -696 0
-89 27 0
-89 696 0
90 -89 -723 0
-90 89 0
-90 723 0
91 -724 -88 0
-91 724 0
-91 88 0
92 -4 -3 0
-92 4 0
-92 3 0
93 -92 -28 0
-93 92 0
-93 28 0
94 -725 -91 0
-94 725 0
-94 91 0
95 -726 -29 0
-95 726 0
-95 29 0
96 -95 -8 0
-96 95 0
-96 8 0
97 -727 -94 0
-97 727 0
-97 94 0
98 -31 -705 0
-98 31 0
-98 705 0
99 -98 -32 0
-99 98 0
-99 32 0
100 -728 -97 0
-100 728 0
-100 97 0
101 -729 -730 0
-101 729 0
-101 730 0
102 -101 -731 0
-102 101 0
-102 731 0
103 -732 -100 0
-103 732 0
-103 100 0
104 -29 -21 0
-104 29 0
-104 21 0
105 -104 -28 0
-105 104 0
-105 28 0
106 -733 -103 0
-106 733 0
-106 103 0
107 -734 -735 0
-107 734 0
-107 735 0
108 -107 -35 0
-108 107 0
-108 35 0
109 -736 -106 0
-109 736 0
-109 106 0
110 -737 -32 0
-110 737 0
-110 32 0
111 -110 -6 0
-111 110 0
-111 6 0
112 -738 -109 0
-112 738 0
-112 109 0
113 -35 -696 0
-113 35 0
-113 696 0
114 -113 -37 0
-114 113 0
-114 37 0
115 -739 -112 0
-115 739 0
-115 112 0
116 -33 -714 0
-116 33 0
-116 714 0
117 -116 -740 0
-117 116 0
-117 740 0
118 -741 -115 0
-118 741 0
-118 115 0
119 -742 -697 0
-119 742 0
-119 697 0
120 -119 -39 0
-120 119 0
-120 39 0
121 -743 -118 0
-121 743 0
-121 118 0
122 -40 -36 0
-122 40 0
-122 36 0
123 -122 -699 0
-123 122 0
-123 699 0
124 -744 -121 0
-124 744 0
-124 121 0
125 -734 -745 0
-125 734 0
-125 745 0
126 -125 -746 0
-126 125 0
-126 746 0
127 -747 -124 0
-127 747 0
-127 124 0
128 -41 -33 0
-128 41 0
-128 33 0
129 -128 -26 0
-129 128 0
-129 26 0
130 -748 -127 0
-130 748 0
-130 127 0
131 -42 -749 0
-131 42 0
-131 749 0
132 -131 -4 0
-132 131 0
-132 4 0
133 -750 -130 0
-133 750 0
-133 130 0
134 -43 -751 0
-134 43 0
-134 751 0
135 -134 -41 0
-135 134 0
-135 41 0
136 -752 -133 0
-136 752 0
-136 133 0
137 -753 -14 0
-137 753 0
-137 14 0
138 -137 -6 0
-138 137 0
-138 6 0
139 -754 -136 0
-139 754 0
-139 136 0
140 -24 -15 0
-140 24 0
-140 15 0
141 -140 -3 0
-141 140 0
-141 3 0
142 -755 -139 0
-142 755 0
-142 139 0
143 -756 -10 0
-143 756 0
-143 10 0
144 -143 -757 0
-144 143 0
-144 757 0
145 -758 -142 0
-145 758 0
-145 142 0
146 -43 -13 0
-146 43 0
-146 13 0
147 -146 -731 0
-147 146 0
-147 731 0
148 -759 -145 0
-148 759 0
-148 145 0
149 -742 -36 0
-149 742 0
-149 36 0
150 -149 -729 0
-150 149 0
-150 729 0
151 -760 -148 0
-151 760 0
-151 148 0
152 -46 -23 0
-152 46 0
-152 23 0
153 -152 -8 0
-153 152 0
-153 8 0
154 -761 -151 0
-154 761 0
-154 151 0
155 -762 -13 0
-155 762 0
-155 13 0
156 -155 -35 0
-156 155 0
-156 35 0
157 -763 -154 0
-157 763 0
-157 154 0
158 -742 -717 0
-158 742 0
-158 717 0
159 -158 -33 0
-159 158 0
-159 33 0
160 -764 -157 0
-160 764 0
-160 157 0
161 -765 -714 0
-161 765 0
-161 714 0
162 -161 -766 0
-162 161 0
-162 766 0
163 -767 -160 0
-163 767 0
-163 160 0
164 -762 -706 0
-164 762 0
-164 706 0
165 -164 -768 0
-165 164 0
-165 768 0
166 -769 -163 0
-166 769 0
-166 163 0
167 -770 -16 0
-167 770 0
-167 16 0
168 -167 -731 0
-168 167 0
-168 731 0
169 -771 -166 0
-169 771 0
-169 166 0
170 -33 -2 0
-170 33 0
-170 2 0
171 -170 -17 0
-171 170 0
-171 17 0
172 -772 -169 0
-172 772 0
-172 169 0
173 -5 -4 0
-173 5 0
-173 4 0
174 -173 -740 0
-174 173 0
-174 740 0
175 -773 -172 0
-175 773 0
-175 172 0
176 -42 -717 0
-176 42 0
-176 717 0
177 -176 -737 0
-177 176 0
-177 737 0
178 -774 -175 0
-178 774 0
-178 175 0
179 -762 -15 0
-179 762 0
-179 15 0
180 -179 -723 0
-180 179 0
-180 723 0
181 -775 -178 0
-181 775 0
-181 178 0
182 -42 -23 0
-182 42 0
-182 23 0
183 -182 -776 0
-183 182 0
-183 776 0
184 -777 -181 0
-184 777 0
-184 181 0
185 -27 -766 0
-185 27 0
-185 766 0
186 -185 -17 0
-186 185 0
-186 17 0
187 -778 -184 0
-187 778 0
-187 184 0
188 -779 -714 0
-188 779 0
-188 714 0
189 -188 -768 0
-189 188 0
-189 768 0
190 -780 -187 0
-190 780 0
-190 187 0
191 -43 -24 0
-191 43 0
-191 24 0
192 -191 -726 0
-192 191 0
-192 726 0
193 -781 -190 0
-193 781 0
-193 190 0
194 -40 -751 0
-194 40 0
-194 751 0
195 -194 -709 0
-195 194 0
-195 709 0
196 -782 -193 0
-196 782 0
-196 193 0
197 -43 -706 0
-197 43 0
-197 706 0
198 -197 -783 0
-198 197 0
-198 783 0
199 -784 -196 0
-199 784 0
-199 196 0
200 -47 -5 0
-200 47 0
-200 5 0
201 -200 -48 0
-201 200 0
-201 48 0
202 -785 -199 0
-202 785 0
-202 199 0
203 -23 -717 0
-203 23 0
-203 717 0
204 -203 -786 0
-204 203 0
-204 786 0
205 -787 -202 0
-205 787 0
-205 202 0
206 -770 -21 0
-206 770 0
-206 21 0
207 -206 -788 0
-207 206 0
-207 788 0
208 -789 -205 0
-208 789 0
-208 205 0
209 -41 -698 0
-209 41 0
-209 698 0
210 -209 -8 0
-210 209 0
-210 8 0
211 -790 -208 0
-211 790 0
-211 208 0
212 -765 -762 0
-212 765 0
-212 762 0
213 -212 -23 0
-213 212 0
-213 23 0
214 -791 -211 0
-214 791 0
-214 211 0
215 -43 -38 0
-215 43 0
-215 38 0
216 -215 -718 0
-216 215 0
-216 718 0
217 -792 -214 0
-217 792 0
-217 214 0
218 -776 -26 0
-218 776 0
-218 26 0
219 -218 -793 0
-219 218 0
-219 793 0
220 -794 -217 0
-220 794 0
-220 217 0
221 -795 -41 0
-221 795 0
-221 41 0
222 -221 -731 0
-222 221 0
-222 731 0
223 -796 -220 0
-223 796 0
-223 220 0
224 -795 -716 0
-224 795 0
-224 716 0
225 -224 -27 0
-225 224 0
-225 27 0
226 -797 -223 0
-226 797 0
-226 223 0
227 -40 -26 0
-227 40 0
-227 26 0
228 -227 -793 0
-228 227 0
-228 793 0
229 -798 -226 0
-229 798 0
-229 226 0
230 -30 -756 0
-230 30 0
-230 756 0
231 -230 -17 0
-231 230 0
-231 17 0
232 -799 -229 0
-232 799 0
-232 229 0
233 -737 -751 0
-233 737 0
-233 751 0
234 -233 -15 0
-234 233 0
-234 15 0
235 -800 -232 0
-235 800 0
-235 232 0
236 -21 -766 0
-236 21 0
-236 766 0
237 -236 -734 0
-237 236 0
-237 734 0
238 -801 -235 0
-238 801 0
-238 235 0
239 -765 -705 0
-239 765 0
-239 705 0
240 -239 -703 0
-240 239 0
-240 703 0
241 -802 -238 0
-241 802 0
-241 238 0
242 -31 -749 0
-242 31 0
-242 749 0
243 -242 -726 0
-243 242 0
-243 726 0
244 -803 -241 0
-244 803 0
-244 241 0
245 -35 -31 0
-245 35 0
-245 31 0
246 -245 -710 0
-246 245 0
-246 710 0
247 -804 -244 0
-247 804 0
-247 244 0
248 -32 -731 0
-248 32 0
-248 731 0
249 -248 -17 0
-249 248 0
-249 17 0
250 -805 -247 0
-250 805 0
-250 247 0
251 -38 -4 0
-251 38 0
-251 4 0
252 -251 -783 0
-252 251 0
-252 783 0
253 -806 -250 0
-253 806 0
-253 250 0
254 -702 -2 0
-254 702 0
-254 2 0
255 -254 -9 0
-255 254 0
-255 9 0
256 -807 -253 0
-256 807 0
-256 253 0
257 -808 -714 0
-257 808 0
-257 714 0
258 -257 -809 0
-258 257 0
-258 809 0
259 -810 -256 0
-259 810 0
-259 256 0
260 -36 -698 0
-260 36 0
-260 698 0
261 -260 -746 0
-261 260 0
-261 746 0
262 -811 -259 0
-262 811 0
-262 259 0
263 -83 -39 0
-263 83 0
-263 39 0
264 -812 -262 0
-264 812 0
-264 262 0
265 -50 -4 0
-265 50 0
-265 4 0
266 -265 -745 0
-266 265 0
-266 745 0
267 -813 -264 0
-267 813 0
-267 264 0
268 -27 -698 0
-268 27 0
-268 698 0
269 -268 -23 0
-269 268 0
-269 23 0
270 -814 -267 0
-270 814 0
-270 267 0
271 -49 -47 0
-271 49 0
-271 47 0
272 -271 -45 0
-272 271 0
-272 45 0
273 -815 -270 0
-273 815 0
-273 270 0
274 -22 -2 0
-274 22 0
-274 2 0
275 -274 -745 0
-275 274 0
-275 745 0
276 -816 -273 0
-276 816 0
-276 273 0
277 -734 -726 0
-277 734 0
-277 726 0
278 -277 -718 0
-278 277 0
-278 718 0
279 -817 -276 0
-279 817 0
-279 276 0
280 -44 -779 0
-280 44 0
-280 779 0
281 -280 -7 0
-281 280 0
-281 7 0
282 -818 -279 0
-282 818 0
-282 279 0
283 -735 -16 0
-283 735 0
-283 16 0
284 -283 -41 0
-284 283 0
-284 41 0
285 -819 -282 0
-285 819 0
-285 282 0
286 -809 -726 0
-286 809 0
-286 726 0
287 -286 -32 0
-287 286 0
-287 32 0
288 -820 -285 0
-288 820 0
-288 285 0
289 -821 -751 0
-289 821 0
-289 751 0
290 -289 -6 0
-290 289 0
-290 6 0
291 -822 -288 0
-291 822 0
-291 288 0
292 -821 -35 0
-292 821 0
-292 35 0
293 -292 -702 0
-293 292 0
-293 702 0
294 -823 -291 0
-294 823 0
-294 291 0
295 -779 -38 0
-295 779 0
-295 38 0
296 -295 -788 0
-296 295 0
-296 788 0
297 -824 -294 0
-297 824 0
-297 294 0
298 -749 -696 0
-298 749 0
-298 696 0
299 -298 -15 0
-299 298 0
-299 15 0
300 -825 -297 0
-300 825 0
-300 297 0
301 -730 -3 0
-301 730 0
-301 3 0
302 -301 -746 0
-302 301 0
-302 746 0
303 -826 -300 0
-303 826 0
-303 300 0
304 -779 -33 0
-304 779 0
-304 33 0
305 -304 -44 0
-305 304 0
-305 44 0
306 -827 -303 0
-306 827 0
-306 303 0
307 -749 -756 0
-307 749 0
-307 756 0
308 -307 -41 0
-308 307 0
-308 41 0
309 -828 -306 0
-309 828 0
-309 306 0
310 -737 -34 0
-310 737 0
-310 34 0
311 -310 -5 0
-311 310 0
-311 5 0
312 -829 -309 0
-312 829 0
-312 309 0
313 -21 -730 0
-313 21 0
-313 730 0
314 -313 -50 0
-314 313 0
-314 50 0
315 -830 -312 0
-315 830 0
-315 312 0
316 -38 -751 0
-316 38 0
-316 751 0
317 -316 -793 0
-317 316 0
-317 793 0
318 -831 -315 0
-318 831 0
-318 315 0
319 -46 -36 0
-319 46 0
-319 36 0
320 -319 -729 0
-320 319 0
-320 729 0
321 -832 -318 0
-321 832 0
-321 318 0
322 -716 -709 0
-322 716 0
-322 709 0
323 -322 -27 0
-323 322 0
-323 27 0
324 -833 -321 0
-324 833 0
-324 321 0
325 -29 -23 0
-325 29 0
-325 23 0
326 -325 -834 0
-326 325 0
-326 834 0
327 -835 -324 0
-327 835 0
-327 324 0
328 -41 -768 0
-328 41 0
-328 768 0
329 -328 -32 0
-329 328 0
-329 32 0
330 -836 -327 0
-330 836 0
-330 327 0
331 -14 -703 0
-331 14 0
-331 703 0
332 -331 -37 0
-332 331 0
-332 37 0
333 -837 -330 0
-333 837 0
-333 330 0
334 -834 -749 0
-334 834 0
-334 749 0
335 -334 -17 0
-335 334 0
-335 17 0
336 -838 -333 0
-336 838 0
-336 333 0
337 -40 -29 0
-337 40 0
-337 29 0
338 -337 -716 0
-338 337 0
-338 716 0
339 -839 -336 0
-339 839 0
-339 336 0
340 -43 -20 0
-340 43 0
-340 20 0
341 -340 -834 0
-341 340 0
-341 834 0
342 -840 -339 0
-342 840 0
-342 339 0
343 -43 -808 0
-343 43 0
-343 808 0
344 -343 -696 0
-344 343 0
-344 696 0
345 -841 -342 0
-345 841 0
-345 342 0
346 -37 -698 0
-346 37 0
-346 698 0
347 -346 -740 0
-347 346 0
-347 740 0
348 -842 -345 0
-348 842 0
-348 345 0
349 -793 -4 0
-349 793 0
-349 4 0
350 -349 -25 0
-350 349 0
-350 25 0
351 -843 -348 0
-351 843 0
-351 348 0
352 -44 -740 0
-352 44 0
-352 740 0
353 -352 -786 0
-353 352 0
-353 786 0
354 -844 -351 0
-354 844 0
-354 351 0
355 -745 -13 0
-355 745 0
-355 13 0
356 -355 -45 0
-356 355 0
-356 45 0
357 -845 -354 0
-357 845 0
-357 354 0
358 -751 -730 0
-358 751 0
-358 730 0
359 -358 -702 0
-359 358 0
-359 702 0
360 -846 -357 0
-360 846 0
-360 357 0
361 -19 -16 0
-361 19 0
-361 16 0
362 -361 -740 0
-362 361 0
-362 740 0
363 -847 -360 0
-363 847 0
-363 360 0
364 -45 -41 0
-364 45 0
-364 41 0
365 -364 -26 0
-365 364 0
-365 26 0
366 -848 -363 0
-366 848 0
-366 363 0
367 -24 -14 0
-367 24 0
-367 14 0
368 -367 -39 0
-368 367 0
-368 39 0
369 -849 -366 0
-369 849 0
-369 366 0
370 -46 -21 0
-370 46 0
-370 21 0
371 -370 -746 0
-371 370 0
-371 746 0
372 -850 -369 0
-372 850 0
-372 369 0
373 -47 -746 0
-373 47 0
-373 746 0
374 -373 -37 0
-374 373 0
-374 37 0
375 -851 -372 0
-375 851 0
-375 372 0
376 -12 -10 0
-376 12 0
-376 10 0
377 -376 -2 0
-377 376 0
-377 2 0
378 -852 -375 0
-378 852 0
-378 375 0
379 -795 -24 0
-379 795 0
-379 24 0
380 -379 -746 0
-380 379 0
-380 746 0
381 -853 -378 0
-381 853 0
-381 378 0
382 -20 -717 0
-382 20 0
-382 717 0
383 -382 -723 0
-383 382 0
-383 723 0
384 -854 -381 0
-384 854 0
-384 381 0
385 -765 -3 0
-385 765 0
-385 3 0
386 -385 -20 0
-386 385 0
-386 20 0
387 -855 -384 0
-387 855 0
-387 384 0
388 -36 -696 0
-388 36 0
-388 696 0
389 -388 -766 0
-389 388 0
-389 766 0
390 -856 -387 0
-390 856 0
-390 387 0
391 -50 -766 0
-391 50 0
-391 766 0
392 -391 -788 0
-392 391 0
-392 788 0
393 -857 -390 0
-393 857 0
-393 390 0
394 -788 -43 0
-394 788 0
-394 43 0
395 -394 -731 0
-395 394 0
-395 731 0
396 -858 -393 0
-396 858 0
-396 393 0
397 -44 -696 0
-397 44 0
-397 696 0
398 -397 -710 0
-398 397 0
-398 710 0
399 -859 -396 0
-399 859 0
-399 396 0
400 -42 -3 0
-400 42 0
-400 3 0
401 -400 -32 0
-401 400 0
-401 32 0
402 -860 -399 0
-402 860 0
-402 399 0
403 -21 -2 0
-403 21 0
-403 2 0
404 -403 -710 0
-404 403 0
-404 710 0
405 -861 -402 0
-405 861 0
-405 402 0
406 -765 -756 0
-406 765 0
-406 756 0
407 -406 -710 0
-407 406 0
-407 710 0
408 -862 -405 0
-408 862 0
-408 405 0
409 -746 -717 0
-409 746 0
-409 717 0
410 -409 -793 0
-410 409 0
-410 793 0
411 -863 -408 0
-411 863 0
-411 408 0
412 -49 -717 0
-412 49 0
-412 717 0
413 -412 -25 0
-413 412 0
-413 25 0
414 -864 -411 0
-414 864 0
-414 411 0
415 -21 -6 0
-415 21 0
-415 6 0
416 -415 -25 0
-416 415 0
-416 25 0
417 -865 -414 0
-417 865 0
-417 414 0
418 -765 -41 0
-418 765 0
-418 41 0
419 -418 -26 0
-419 418 0
-419 26 0
420 -866 -417 0
-420 866 0
-420 417 0
421 -43 -730 0
-421 43 0
-421 730 0
422 -421 -867 0
-422 421 0
-422 867 0
423 -868 -420 0
-423 868 0
-423 420 0
424 -742 -37 0
-424 742 0
-424 37 0
425 -424 -17 0
-425 424 0
-425 17 0
426 -869 -423 0
-426 869 0
-426 423 0
427 -236 -44 0
-427 236 0
-427 44 0
428 -870 -426 0
-428 870 0
-428 426 0
429 -788 -714 0
-429 788 0
-429 714 0
430 -429 -3 0
-430 429 0
-430 3 0
431 -871 -428 0
-431 871 0
-431 428 0
432 -40 -749 0
-432 40 0
-432 749 0
433 -432 -872 0
-433 432 0
-433 872 0
434 -873 -431 0
-434 873 0
-434 431 0
435 -756 -768 0
-435 756 0
-435 768 0
436 -435 -757 0
-436 435 0
-436 757 0
437 -874 -434 0
-437 874 0
-437 434 0
438 -735 -696 0
-438 735 0
-438 696 0
439 -438 -4 0
-439 438 0
-439 4 0
440 -875 -437 0
-440 875 0
-440 437 0
441 -779 -42 0
-441 779 0
-441 42 0
442 -441 -17 0
-442 441 0
-442 17 0
443 -876 -440 0
-443 876 0
-443 440 0
444 -62 -41 0
-444 62 0
-444 41 0
445 -877 -443 0
-445 877 0
-445 443 0
446 -740 -714 0
-446 740 0
-446 714 0
447 -446 -17 0
-447 446 0
-447 17 0
448 -878 -445 0
-448 878 0
-448 445 0
449 -742 -11 0
-449 742 0
-449 11 0
450 -449 -42 0
-450 449 0
-450 42 0
451 -879 -448 0
-451 879 0
-451 448 0
452 -40 -703 0
-452 40 0
-452 703 0
453 -452 -740 0
-453 452 0
-453 740 0
454 -880 -451 0
-454 880 0
-454 451 0
455 -47 -768 0
-455 47 0
-455 768 0
456 -455 -783 0
-456 455 0
-456 783 0
457 -881 -454 0
-457 881 0
-457 454 0
458 -11 -703 0
-458 11 0
-458 703 0
459 -458 -20 0
-459 458 0
-459 20 0
460 -882 -457 0
-460 882 0
-460 457 0
461 -27 -7 0
-461 27 0
-461 7 0
462 -461 -834 0
-462 461 0
-462 834 0
463 -883 -460 0
-463 883 0
-463 460 0
464 -62 -793 0
-464 62 0
-464 793 0
465 -884 -463 0
-465 884 0
-465 463 0
466 -29 -14 0
-466 29 0
-466 14 0
467 -466 -3 0
-467 466 0
-467 3 0
468 -885 -465 0
-468 885 0
-468 465 0
469 -31 -15 0
-469 31 0
-469 15 0
470 -469 -729 0
-470 469 0
-470 729 0
471 -886 -468 0
-471 886 0
-471 468 0
472 -821 -717 0
-472 821 0
-472 717 0
473 -472 -39 0
-473 472 0
-473 39 0
474 -887 -471 0
-474 887 0
-474 471 0
475 -5 -2 0
-475 5 0
-475 2 0
476 -475 -740 0
-476 475 0
-476 740 0
477 -888 -474 0
-477 888 0
-477 474 0
478 -37 -36 0
-478 37 0
-478 36 0
479 -478 -32 0
-479 478 0
-479 32 0
480 -889 -477 0
-480 889 0
-480 477 0
481 -41 -38 0
-481 41 0
-481 38 0
482 -481 -753 0
-482 481 0
-482 753 0
483 -890 -480 0
-483 890 0
-483 480 0
484 -164 -20 0
-484 164 0
-484 20 0
485 -891 -483 0
-485 891 0
-485 483 0
486 -730 -2 0
-486 730 0
-486 2 0
487 -486 -753 0
-487 486 0
-487 753 0
488 -892 -485 0
-488 892 0
-488 485 0
489 -770 -697 0
-489 770 0
-489 697 0
490 -489 -7 0
-490 489 0
-490 7 0
491 -893 -488 0
-491 893 0
-491 488 0
492 -821 -770 0
-492 821 0
-492 770 0
493 -492 -894 0
-493 492 0
-493 894 0
494 -895 -491 0
-494 895 0
-494 491 0
495 -734 -751 0
-495 734 0
-495 751 0
496 -495 -32 0
-496 495 0
-496 32 0
497 -896 -494 0
-497 896 0
-497 494 0
498 -44 -749 0
-498 44 0
-498 749 0
499 -498 -25 0
-499 498 0
-499 25 0
500 -897 -497 0
-500 897 0
-500 497 0
501 -42 -34 0
-501 42 0
-501 34 0
502 -501 -699 0
-502 501 0
-502 699 0
503 -898 -500 0
-503 898 0
-503 500 0
504 -705 -766 0
-504 705 0
-504 766 0
505 -504 -731 0
-505 504 0
-505 731 0
506 -899 -503 0
-506 899 0
-506 503 0
507 -29 -7 0
-507 29 0
-507 7 0
508 -507 -48 0
-508 507 0
-508 48 0
509 -900 -506 0
-509 900 0
-509 506 0
510 -47 -714 0
-510 47 0
-510 714 0
511 -510 -32 0
-511 510 0
-511 32 0
512 -901 -509 0
-512 901 0
-512 509 0
513 -737 -726 0
-513 737 0
-513 726 0
514 -513 -757 0
-514 513 0
-514 757 0
515 -902 -512 0
-515 902 0
-515 512 0
516 -33 -705 0
-516 33 0
-516 705 0
517 -516 -698 0
-517 516 0
-517 698 0
518 -903 -515 0
-518 903 0
-518 515 0
519 -47 -12 0
-519 47 0
-519 12 0
520 -519 -46 0
-520 519 0
-520 46 0
521 -904 -518 0
-521 904 0
-521 518 0
522 -821 -765 0
-522 821 0
-522 765 0
523 -522 -746 0
-523 522 0
-523 746 0
524 -905 -521 0
-524 905 0
-524 521 0
525 -42 -706 0
-525 42 0
-525 706 0
526 -525 -2 0
-526 525 0
-526 2 0
527 -906 -524 0
-527 906 0
-527 524 0
528 -765 -4 0
-528 765 0
-528 4 0
529 -528 -740 0
-529 528 0
-529 740 0
530 -907 -527 0
-530 907 0
-530 527 0
531 -894 -24 0
-531 894 0
-531 24 0
532 -531 -729 0
-532 531 0
-532 729 0
533 -908 -530 0
-533 908 0
-533 530 0
534 -33 -30 0
-534 33 0
-534 30 0
535 -534 -7 0
-535 534 0
-535 7 0
536 -909 -533 0
-536 909 0
-536 533 0
537 -50 -717 0
-537 50 0
-537 717 0
538 -537 -7 0
-538 537 0
-538 7 0
539 -910 -536 0
-539 910 0
-539 536 0
540 -808 -2 0
-540 808 0
-540 2 0
541 -540 -37 0
-541 540 0
-541 37 0
542 -911 -539 0
-542 911 0
-542 539 0
543 -22 -702 0
-543 22 0
-543 702 0
544 -543 -9 0
-544 543 0
-544 9 0
545 -912 -542 0
-545 912 0
-545 542 0
546 -197 -49 0
-546 197 0
-546 49 0
547 -913 -545 0
-547 913 0
-547 545 0
548 -717 -696 0
-548 717 0
-548 696 0
549 -548 -766 0
-549 548 0
-549 766 0
550 -914 -547 0
-550 914 0
-550 547 0
551 -821 -16 0
-551 821 0
-551 16 0
552 -551 -770 0
-552 551 0
-552 770 0
553 -915 -550 0
-553 915 0
-553 550 0
554 -706 -11 0
-554 706 0
-554 11 0
555 -554 -770 0
-555 554 0
-555 770 0
556 -916 -553 0
-556 916 0
-556 553 0
557 -821 -703 0
-557 821 0
-557 703 0
558 -557 -25 0
-558 557 0
-558 25 0
559 -917 -556 0
-559 917 0
-559 556 0
560 -50 -756 0
-560 50 0
-560 756 0
561 -560 -3 0
-561 560 0
-561 3 0
562 -918 -559 0
-562 918 0
-562 559 0
563 -28 -709 0
-563 28 0
-563 709 0
564 -563 -718 0
-564 563 0
-564 718 0
565 -919 -562 0
-565 919 0
-565 562 0
566 -821 -735 0
-566 821 0
-566 735 0
567 -566 -28 0
-567 566 0
-567 28 0
568 -920 -565 0
-568 920 0
-568 565 0
569 -35 -746 0
-569 35 0
-569 746 0
570 -569 -793 0
-570 569 0
-570 793 0
571 -921 -568 0
-571 921 0
-571 568 0
572 -702 -7 0
-572 702 0
-572 7 0
573 -572 -723 0
-573 572 0
-573 723 0
574 -922 -571 0
-574 922 0
-574 571 0
575 -745 -768 0
-575 745 0
-575 768 0
576 -575 -699 0
-576 575 0
-576 699 0
577 -923 -574 0
-577 923 0
-577 574 0
578 -14 -766 0
-578 14 0
-578 766 0
579 -578 -20 0
-579 578 0
-579 20 0
580 -924 -577 0
-580 924 0
-580 577 0
581 -16 -696 0
-581 16 0
-581 696 0
582 -581 -740 0
-582 581 0
-582 740 0
583 -925 -580 0
-583 925 0
-583 580 0
584 -698 -697 0
-584 698 0
-584 697 0
585 -584 -710 0
-585 584 0
-585 710 0
586 -926 -583 0
-586 926 0
-586 583 0
587 -50 -735 0
-587 50 0
-587 735 0
588 -587 -25 0
-588 587 0
-588 25 0
589 -927 -586 0
-589 927 0
-589 586 0
590 -49 -34 0
-590 49 0
-590 34 0
591 -590 -17 0
-591 590 0
-591 17 0
592 -928 -589 0
-592 928 0
-592 589 0
593 -735 -697 0
-593 735 0
-593 697 0
594 -593 -726 0
-594 593 0
-594 726 0
595 -929 -592 0
-595 929 0
-595 592 0
596 -716 -12 0
-596 716 0
-596 12 0
597 -596 -35 0
-597 596 0
-597 35 0
598 -930 -595 0
-598 930 0
-598 595 0
599 -42 -808 0
-599 42 0
-599 808 0
600 -599 -768 0
-600 599 0
-600 768 0
601 -931 -598 0
-601 931 0
-601 598 0
602 -821 -2 0
-602 821 0
-602 2 0
603 -602 -26 0
-603 602 0
-603 26 0
604 -932 -601 0
-604 932 0
-604 601 0
605 -716 -11 0
-605 716 0
-605 11 0
606 -605 -779 0
-606 605 0
-606 779 0
607 -933 -604 0
-607 933 0
-607 604 0
608 -737 -24 0
-608 737 0
-608 24 0
609 -608 -793 0
-609 608 0
-609 793 0
610 -934 -607 0
-610 934 0
-610 607 0
611 -894 -809 0
-611 894 0
-611 809 0
612 -611 -8 0
-612 611 0
-612 8 0
613 -935 -610 0
-613 935 0
-613 610 0
614 -35 -24 0
-614 35 0
-614 24 0
615 -614 -9 0
-615 614 0
-615 9 0
616 -936 -613 0
-616 936 0
-616 613 0
617 -808 -16 0
-617 808 0
-617 16 0
618 -617 -753 0
-618 617 0
-618 753 0
619 -937 -616 0
-619 937 0
-619 616 0
620 -27 -699 0
-620 27 0
-620 699 0
621 -620 -723 0
-621 620 0
-621 723 0
622 -938 -619 0
-622 938 0
-622 619 0
623 -24 -1 0
-623 24 0
-623 1 0
624 -623 -25 0
-624 623 0
-624 25 0
625 -939 -622 0
-625 939 0
-625 622 0
626 -3 -697 0
-626 3 0
-626 697 0
627 -626 -48 0
-627 626 0
-627 48 0
628 -940 -625 0
-628 940 0
-628 625 0
629 -38 -23 0
-629 38 0
-629 23 0
630 -629 -757 0
-630 629 0
-630 757 0
631 -941 -628 0
-631 941 0
-631 628 0
632 -762 -714 0
-632 762 0
-632 714 0
633 -632 -6 0
-633 632 0
-633 6 0
634 -942 -631 0
-634 942 0
-634 631 0
635 -717 -706 0
-635 717 0
-635 706 0
636 -635 -766 0
-636 635 0
-636 766 0
637 -943 -634 0
-637 943 0
-637 634 0
638 -765 -1 0
-638 765 0
-638 1 0
639 -638 -47 0
-639 638 0
-639 47 0
640 -944 -637 0
-640 944 0
-640 637 0
641 -734 -12 0
-641 734 0
-641 12 0
642 -641 -867 0
-642 641 0
-642 867 0
643 -945 -640 0
-643 945 0
-643 640 0
644 -735 -21 0
-644 735 0
-644 21 0
645 -644 -729 0
-645 644 0
-645 729 0
646 -946 -643 0
-646 946 0
-646 643 0
647 -703 -766 0
-647 703 0
-647 766 0
648 -647 -20 0
-648 647 0
-648 20 0
649 -947 -646 0
-649 947 0
-649 646 0
650 -737 -808 0
-650 737 0
-650 808 0
651 -650 -4 0
-651 650 0
-651 4 0
652 -948 -649 0
-652 948 0
-652 649 0
653 -872 -24 0
-653 872 0
-653 24 0
654 -653 -19 0
-654 653 0
-654 19 0
655 -949 -652 0
-655 949 0
-655 652 0
656 -753 -746 0
-656 753 0
-656 746 0
657 -656 -699 0
-657 656 0
-657 699 0
658 -950 -655 0
-658 950 0
-658 655 0
659 -779 -40 0
-659 779 0
-659 40 0
660 -659 -37 0
-660 659 0
-660 37 0
661 -951 -658 0
-661 951 0
-661 658 0
662 -742 -730 0
-662 742 0
-662 730 0
663 -662 -770 0
-663 662 0
-663 770 0
664 -952 -661 0
-664 952 0
-664 661 0
665 -537 -770 0
-665 537 0
-665 770 0
666 -953 -664 0
-666 953 0
-666 664 0
667 -768 -12 0
-667 768 0
-667 12 0
668 -667 -23 0
-668 667 0
-668 23 0
669 -954 -666 0
-669 954 0
-669 666 0
670 -753 -766 0
-670 753 0
-670 766 0
671 -670 -718 0
-671 670 0
-671 718 0
672 -955 -669 0
-672 955 0
-672 669 0
673 -757 -38 0
-673 757 0
-673 38 0
674 -673 -793 0
-674 673 0
-674 793 0
675 -956 -672 0
-675 956 0
-675 672 0
676 -716 -14 0
-676 716 0
-676 14 0
677 -676 -27 0
-677 676 0
-677 27 0
678 -957 -675 0
-678 957 0
-678 675 0
679 -10 -4 0
-679 10 0
-679 4 0
680 -679 -867 0
-680 679 0
-680 867 0
681 -958 -678 0
-681 958 0
-681 678 0
682 -31 -730 0
-682 31 0
-682 730 0
683 -682 -729 0
-683 682 0
-683 729 0
684 -959 -681 0
-684 959 0
-684 681 0
685 -795 -1 0
-685 795 0
-685 1 0
686 -685 -793 0
-686 685 0
-686 793 0
687 -960 -684 0
-687 960 0
-687 684 0
688 -432 -710 0
-688 432 0
-688 710 0
689 -961 -687 0
-689 961 0
-689 687 0
690 -705 -698 0
-690 705 0
-690 698 0
691 -690 -731 0
-691 690 0
-691 731 0
692 -962 -689 0
-692 962 0
-692 689 0
693 -765 -33 0
-693 765 0
-693 33 0
694 -693 -788 0
-694 693 0
-694 788 0
695 -963 -692 0
-695 963 0
-695 692 0
-696 -2 0
696 2 0
-697 -1 0
697 1 0
-698 -3 0
698 3 0
-699 -5 0
699 5 0
-700 -54 0
700 54 0
-701 -52 0
701 52 0
-702 -8 0
702 8 0
-703 -7 0
703 7 0
-704 -57 0
704 57 0
-705 -10 0
705 10 0
-706 -12 0
706 12 0
-707 -60 0
707 60 0
-708 -63 0
708 63 0
-709 -13 0
709 13 0
-710 -17 0
710 17 0
-711 -66 0
711 66 0
-712 -69 0
712 69 0
-713 -72 0
713 72 0
-714 -21 0
714 21 0
-715 -75 0
715 75 0
-716 -22 0
716 22 0
-717 -18 0
717 18 0
-718 -23 0
718 23 0
-719 -78 0
719 78 0
-720 -81 0
720 81 0
-721 -84 0
721 84 0
-722 -87 0
722 87 0
-723 -9 0
723 9 0
-724 -90 0
724 90 0
-725 -93 0
725 93 0
-726 -30 0
726 30 0
-727 -96 0
727 96 0
-728 -99 0
728 99 0
-729 -28 0
729 28 0
-730 -11 0
730 11 0
-731 -19 0
731 19 0
-732 -102 0
732 102 0
-733 -105 0
733 105 0
-734 -34 0
734 34 0
-735 -33 0
735 33 0
-736 -108 0
736 108 0
-737 -36 0
737 36 0
-738 -111 0
738 111 0
-739 -114 0
739 114 0
-740 -32 0
740 32 0
-741 -117 0
741 117 0
-742 -38 0
742 38 0
-743 -120 0
743 120 0
-744 -123 0
744 123 0
-745 -15 0
745 15 0
-746 -27 0
746 27 0
-747 -126 0
747 126 0
-748 -129 0
748 129 0
-749 -24 0
749 24 0
-750 -132 0
750 132 0
-751 -29 0
751 29 0
-752 -135 0
752 135 0
-753 -44 0
753 44 0
-754 -138 0
754 138 0
-755 -141 0
755 141 0
-756 -16 0
756 16 0
-757 -45 0
757 45 0
-758 -144 0
758 144 0
-759 -147 0
759 147 0
-760 -150 0
760 150 0
-761 -153 0
761 153 0
-762 -40 0
762 40 0
-763 -156 0
763 156 0
-764 -159 0
764 159 0
-765 -42 0
765 42 0
-766 -4 0
766 4 0
-767 -162 0
767 162 0
-768 -14 0
768 14 0
-769 -165 0
769 165 0
-770 -41 0
770 41 0
-771 -168 0
771 168 0
-772 -171 0
772 171 0
-773 -174 0
773 174 0
-774 -177 0
774 177 0
-775 -180 0
775 180 0
-776 -37 0
776 37 0
-777 -183 0
777 183 0
-778 -186 0
778 186 0
-779 -43 0
779 43 0
-780 -189 0
780 189 0
-781 -192 0
781 192 0
-782 -195 0
782 195 0
-783 -25 0
783 25 0
-784 -198 0
784 198 0
-785 -201 0
785 201 0
-786 -6 0
786 6 0
-787 -204 0
787 204 0
-788 -49 0
788 49 0
-789 -207 0
789 207 0
-790 -210 0
790 210 0
-791 -213 0
791 213 0
-792 -216 0
792 216 0
-793 -48 0
793 48 0
-794 -219 0
794 219 0
-795 -46 0
795 46 0
-796 -222 0
796 222 0
-797 -225 0
797 225 0
-798 -228 0
798 228 0
-799 -231 0
799 231 0
-800 -234 0
800 234 0
-801 -237 0
801 237 0
-802 -240 0
802 240 0
-803 -243 0
803 243 0
-804 -246 0
804 246 0
-805 -249 0
805 249 0
-806 -252 0
806 252 0
-807 -255 0
807 255 0
-808 -31 0
808 31 0
-809 -35 0
809 35 0
-810 -258 0
810 258 0
-811 -261 0
811 261 0
-812 -263 0
812 263 0
-813 -266 0
813 266 0
-814 -269 0
814 269 0
-815 -272 0
815 272 0
-816 -275 0
816 275 0
-817 -278 0
817 278 0
-818 -281 0
818 281 0
-819 -284 0
819 284 0
-820 -287 0
820 287 0
-821 -47 0
821 47 0
-822 -290 0
822 290 0
-823 -293 0
823 293 0
-824 -296 0
824 296 0
-825 -299 0
825 299 0
-826 -302 0
826 302 0
-827 -305 0
827 305 0
-828 -308 0
828 308 0
-829 -311 0
829 311 0
-830 -314 0
830 314 0
-831 -317 0
831 317 0
-832 -320 0
832 320 0
-833 -323 0
833 323 0
-834 -26 0
834 26 0
-835 -326 0
835 326 0
-836 -329 0
836 329 0
-837 -332 0
837 332 0
-838 -335 0
838 335 0
-839 -338 0
839 338 0
-840 -341 0
840 341 0
-841 -344 0
841 344 0
-842 -347 0
842 347 0
-843 -350 0
843 350 0
-844 -353 0
844 353 0
-845 -356 0
845 356 0
-846 -359 0
846 359 0
-847 -362 0
847 362 0
-848 -365 0
848 365 0
-849 -368 0
849 368 0
-850 -371 0
850 371 0
-851 -374 0
851 374 0
-852 -377 0
852 377 0
-853 -380 0
853 380 0
-854 -383 0
854 383 0
-855 -386 0
855 386 0
-856 -389 0
856 389 0
-857 -392 0
857 392 0
-858 -395 0
858 395 0
-859 -398 0
859 398 0
-860 -401 0
860 401 0
-861 -404 0
861 404 0
-862 -407 0
862 407 0
-863 -410 0
863 410 0
-864 -413 0
864 413 0
-865 -416 0
865 416 0
-866 -419 0
866 419 0
-867 -20 0
867 20 0
-868 -422 0
868 422 0
-869 -425 0
869 425 0
-870 -427 0
870 427 0
-871 -430 0
871 430 0
-872 -50 0
872 50 0
-873 -433 0
873 433 0
-874 -436 0
874 436 0
-875 -439 0
875 439 0
-876 -442 0
876 442 0
-877 -444 0
877 444 0
-878 -447 0
878 447 0
-879 -450 0
879 450 0
-880 -453 0
880 453 0
-881 -456 0
881 456 0
-882 -459 0
882 459 0
-883 -462 0
883 462 0
-884 -464 0
884 464 0
-885 -467 0
885 467 0
-886 -470 0
886 470 0
-887 -473 0
887 473 0
-888 -476 0
888 476 0
-889 -479 0
889 479 0
-890 -482 0
890 482 0
-891 -484 0
891 484 0
-892 -487 0
892 487 0
-893 -490 0
893 490 0
-894 -39 0
894 39 0
-895 -493 0
895 493 0
-896 -496 0
896 496 0
-897 -499 0
897 499 0
-898 -502 0
898 502 0
-899 -505 0
899 505 0
-900 -508 0
900 508 0
-901 -511 0
901 511 0
-902 -514 0
902 514 0
-903 -517 0
903 517 0
-904 -520 0
904 520 0
-905 -523 0
905 523 0
-906 -526 0
906 526 0
-907 -529 0
907 529 0
-908 -532 0
908 532 0
-909 -535 0
909 535 0
-910 -538 0
910 538 0
-911 -541 0
911 541 0
-912 -544 0
912 544 0
-913 -546 0
913 546 0
-914 -549 0
914 549 0
-915 -552 0
915 552 0
-916 -555 0
916 555 0
-917 -558 0
917 558 0
-918 -561 0
918 561 0
-919 -564 0
919 564 0
-920 -567 0
920 567 0
-921 -570 0
921 570 0
-922 -573 0
922 573 0
-923 -576 0
923 576 0
-924 -579 0
924 579 0
-925 -582 0
925 582 0
-926 -585 0
926 585 0
-927 -588 0
927 588 0
-928 -591 0
928 591 0
-929 -594 0
929 594 0
-930 -597 0
930 597 0
-931 -600 0
931 600 0
-932 -603 0
932 603 0
-933 -606 0
933 606 0
-934 -609 0
934 609 0
-935 -612 0
935 612 0
-936 -615 0
936 615 0
-937 -618 0
937 618 0
-938 -621 0
938 621 0
-939 -624 0
939 624 0
-940 -627 0
940 627 0
-941 -630 0
941 630 0
-942 -633 0
942 633 0
-943 -636 0
943 636 0
-944 -639 0
944 639 0
-945 -642 0
945 642 0
-946 -645 0
946 645 0
-947 -648 0
947 648 0
-948 -651 0
948 651 0
-949 -654 0
949 654 0
-950 -657 0
950 657 0
-951 -660 0
951 660 0
-952 -663 0
952 663 0
-953 -665 0
953 665 0
-954 -668 0
954 668 0
-955 -671 0
955 671 0
-956 -674 0
956 674 0
-957 -677 0
957 677 0
-958 -680 0
958 680 0
-959 -683 0
959 683 0
-960 -686 0
960 686 0
-961 -688 0
961 688 0
-962 -691 0
962 691 0
-963 -694 0
963 694 0
695 0
